(set-logic QF_NRA)
(declare-const _substvar_47_  Bool)
(declare-const _substvar_53_  Real)
(declare-const v0  Bool)
(declare-const v4  Bool)
(declare-const r1  Real)
(declare-const r3  Real)
(declare-const r5  Real)
(declare-const r8  Real)
(declare-const v49  Bool)
(assert (or (or v0 v4) v49 _substvar_47_))
(assert (or (= 0.0 r3 r8 (/ r1 r8) (+ 5.0           r5              ) 0.91) v49 (= (/ 0.4 r1) r3 r8 0.0 _substvar_53_ 0.91)))
(check-sat)
